NAME : portcgen-21-30
COMMENT : portcgen N=21, seed=30
TYPE : TSP
DIMENSION : 21
EDGE_WEIGHT_TYPE : EUC_2D
NODE_COORD_SECTION
1 260371 272609
2 -412900 -390704
3 100211 -351727
4 -65153 -483981
5 460630 397006
6 313980 -128505
7 -203822 151059
8 192264 34900
9 91519 -36004
10 -1115 -365057
11 -14308 105357
12 -255316 633316
13 -78834 -151670
14 214108 165916
15 -44198 -246303
16 -349791 236828
17 -107247 -104574
18 -21466 265513
19 -108433 -25839
20 189792 -282008
21 -293591 57508
